B=5;
D=1;
P=9;
S=9;
demands = [4 1 1 2 2 5 1 2 1 ];
capacities = [9 9 9 9 6 10 9 8 10 ];
dist_start = [1 10 9 6 2 9 5 8 6 ];
dist = [3 10 10 4 8 10 5 4 8 1 3 3 10 6 8 2 1 1 7 4 4 7 3 3 2 7 3 8 4 8 8 8 9 7 1 6 7 5 1 6 5 6 10 7 1 7 10 4 9 6 7 3 4 2 7 7 8 9 7 1 8 4 1 6 10 1 3 8 8 5 6 4 10 5 10 3 4 1 8 2 8 ];
